(set-logic UF)
(declare-sort Set 0)
(declare-sort Elem 0)
(declare-fun member (Elem Set) Bool)
(declare-fun subset (Set Set) Bool)
(declare-fun seteq (Set Set) Bool)
(declare-fun union (Set Set) Set)
(declare-fun intersection (Set Set) Set)
(declare-fun difference (Set Set) Set)
(declare-fun a () Set)
(declare-fun b () Set)
(declare-fun d () Set)
(assert (not (subset (difference b a) (difference b d))))
(assert (not (not (forall ((?x Elem)) (or (not (member ?x (difference b a))) (member ?x (difference b d)))))))
(assert (not (not (or (subset (difference b a) (difference b d)) (not (forall ((?x Elem)) (or (not (member ?x (difference b a))) (member ?x (difference b d)))))))))
(assert (or (not (or (subset (difference b a) (difference b d)) (not (forall ((?x Elem)) (or (not (member ?x (difference b a))) (member ?x (difference b d))))))) (subset (difference b a) (difference b d)) (not (forall ((?x Elem)) (or (not (member ?x (difference b a))) (member ?x (difference b d)))))))
(check-sat)
(exit)
